Copyright (C) 2013-2015, Filipe Brandao
Build (method = -2)
  #dp: 24047
  Step-3' Graph: 1038 vertices and 12396 arcs (0.13s)
  Step-4' Graph: 691 vertices and 11702 arcs (0.14s)
  #V4/#V3 = 0.67
  #A4/#A3 = 0.94
Ready! (0.14s)
Optimize a model with 816 rows, 11703 columns and 33735 nonzeros
Coefficient statistics:
  Matrix range    [1e+00, 1e+00]
  Objective range [1e+00, 1e+00]
  Bounds range    [1e+00, 2e+01]
  RHS range       [1e+00, 2e+01]
Presolve removed 57 rows and 107 columns
Presolve time: 0.08s
Presolved: 759 rows, 11596 columns, 33448 nonzeros
Variable types: 0 continuous, 11596 integer (681 binary)
Optimize a model with 759 rows, 11596 columns and 33448 nonzeros
Coefficient statistics:
  Matrix range    [1e+00, 2e+00]
  Objective range [1e+00, 1e+00]
  Bounds range    [1e+00, 3e+04]
  RHS range       [1e+00, 5e+02]
Presolved: 759 rows, 11596 columns, 33448 nonzeros

Root barrier log...

Ordering time: 0.00s

Barrier statistics:
 AA' NZ     : 1.753e+04
 Factor NZ  : 5.343e+04 (roughly 5 MBytes of memory)
 Factor Ops : 6.463e+06 (less than 1 second per iteration)
 Threads    : 1

                  Objective                Residual
Iter       Primal          Dual         Primal    Dual     Compl     Time
   0   1.41812949e+05 -8.34103027e+05  3.09e+06 5.20e-02  1.21e+03     0s
   1   4.22698936e+04 -2.41692958e+05  5.51e+05 6.66e-16  2.20e+02     0s
   2   6.65602954e+03 -9.98072266e+04  5.71e+04 4.00e-15  2.57e+01     0s
   3   1.94539289e+03 -5.02718835e+04  4.76e+03 1.05e-03  3.77e+00     0s
   4   1.41743773e+03 -1.97925026e+04  8.87e+02 2.34e-04  1.14e+00     0s
   5   1.28950173e+03 -1.20950456e+04  3.09e+02 8.08e-05  6.41e-01     0s
   6   1.20205421e+03 -7.19522278e+03  9.42e+01 1.78e-15  3.77e-01     0s
   7   1.03016795e+03 -3.86274576e+03  1.92e+01 9.71e-16  2.13e-01     0s
   8   8.73247931e+02 -2.00693905e+03  1.07e+01 7.91e-16  1.25e-01     0s
   9   6.83986491e+02 -6.55922901e+02  3.31e+00 8.08e-16  5.79e-02     0s
  10   6.13908289e+02  1.88849716e+02  1.67e+00 8.55e-16  1.84e-02     0s
  11   5.95406607e+02  2.73063344e+02  1.10e+00 8.72e-16  1.39e-02     0s
  12   5.84798357e+02  3.62042433e+02  7.90e-01 8.41e-16  9.63e-03     0s
  13   5.73033905e+02  4.27095899e+02  4.82e-01 9.30e-16  6.30e-03     0s
  14   5.67879924e+02  4.58087453e+02  3.08e-01 9.62e-16  4.73e-03     0s
  15   5.63851867e+02  5.00507465e+02  1.91e-01 9.19e-16  2.73e-03     0s
  16   5.59680191e+02  5.22147749e+02  9.78e-02 9.34e-16  1.62e-03     0s
  17   5.56411001e+02  5.33193605e+02  4.31e-02 8.30e-16  9.99e-04     0s
  18   5.55630334e+02  5.38013603e+02  3.38e-02 8.52e-16  7.58e-04     0s
  19   5.54421616e+02  5.43950851e+02  2.05e-02 9.04e-16  4.50e-04     0s
  20   5.53478562e+02  5.46148282e+02  1.20e-02 9.47e-16  3.15e-04     0s
  21   5.52517733e+02  5.48370718e+02  5.05e-03 7.76e-16  1.78e-04     0s
  22   5.52163825e+02  5.49942527e+02  3.05e-03 8.95e-16  9.55e-05     0s
  23   5.51993903e+02  5.50465505e+02  2.04e-03 9.53e-16  6.57e-05     0s
  24   5.51939972e+02  5.50736886e+02  1.54e-03 1.12e-15  5.17e-05     0s
  25   5.51866944e+02  5.50855769e+02  1.17e-03 9.49e-16  4.35e-05     0s
  26   5.51740054e+02  5.51278461e+02  5.69e-04 7.83e-16  1.99e-05     0s
  27   5.51671950e+02  5.51354043e+02  2.64e-04 8.90e-16  1.37e-05     0s
  28   5.51615852e+02  5.51564467e+02  3.69e-05 7.15e-16  2.21e-06     0s
  29   5.51612912e+02  5.51597240e+02  2.65e-05 7.68e-16  6.74e-07     0s
  30   5.51604449e+02  5.51603145e+02  1.64e-06 8.16e-16  5.60e-08     0s
  31   5.51603823e+02  5.51603807e+02  7.87e-09 7.72e-16  7.04e-10     0s
  32   5.51603814e+02  5.51603814e+02  1.71e-11 7.12e-16  8.73e-16     0s

Barrier solved model in 32 iterations and 0.36 seconds
Optimal objective 5.51603814e+02


Root relaxation: objective 5.516038e+02, 786 iterations, 0.19 seconds

    Nodes    |    Current Node    |     Objective Bounds      |     Work
 Expl Unexpl |  Obj  Depth IntInf | Incumbent    BestBd   Gap | It/Node Time

     0     0  551.60381    0   79          -  551.60381      -     -    0s
H    0     0                     553.0000000  551.60381  0.25%     -    0s
H    0     0                     552.0000000  551.60381  0.07%     -    0s

Explored 0 nodes (1278 simplex iterations) in 0.89 seconds
Thread count was 1 (of 4 available processors)

Optimal solution found (tolerance 0.00e+00)
Best objective 5.520000000000e+02, best bound 5.520000000000e+02, gap 0.0%
Preprocessing time: 0.16 seconds
Gurobi run time: 0.89 seconds
Total run time: 1.05 seconds
Objective: 552
Solution:
5 x [i=1, i=89]
11 x [i=2, i=88]
4 x [i=3, i=87]
12 x [i=3, i=89]
4 x [i=4, i=86]
11 x [i=5, i=85]
1 x [i=5, i=86]
5 x [i=5, i=112, i=122]
6 x [i=6, i=111, i=124]
7 x [i=6, i=112, i=122]
3 x [i=6, i=113, i=120]
5 x [i=7, i=110, i=124]
10 x [i=7, i=114, i=116]
2 x [i=7, i=115, i=115]
9 x [i=8, i=82]
8 x [i=8, i=84]
1 x [i=9, i=81]
9 x [i=9, i=83]
5 x [i=9, i=105, i=125]
3 x [i=9, i=109, i=123]
1 x [i=9, i=110, i=122]
1 x [i=9, i=113, i=119]
5 x [i=10, i=79]
14 x [i=10, i=80]
9 x [i=11, i=78]
1 x [i=11, i=79]
14 x [i=12, i=75]
6 x [i=12, i=76]
11 x [i=13, i=73]
4 x [i=13, i=74]
5 x [i=13, i=77]
14 x [i=14, i=71]
1 x [i=14, i=72]
2 x [i=14, i=73]
7 x [i=15, i=69]
11 x [i=15, i=70]
1 x [i=16, i=68]
2 x [i=17, i=67]
1 x [i=18, i=66]
4 x [i=19, i=66]
11 x [i=19, i=67]
2 x [i=19, i=68]
11 x [i=20, i=68]
2 x [i=20, i=98, i=118]
1 x [i=21, i=101, i=116]
1 x [i=21, i=102, i=115]
7 x [i=21, i=104, i=114]
3 x [i=22, i=100, i=115]
2 x [i=23, i=99, i=115]
1 x [i=24, i=94, i=124]
5 x [i=24, i=104, i=113]
2 x [i=24, i=108, i=112]
12 x [i=25, i=64]
1 x [i=25, i=65]
4 x [i=26, i=64]
1 x [i=26, i=94, i=121]
7 x [i=27, i=63]
8 x [i=28, i=62]
8 x [i=29, i=60]
4 x [i=29, i=61]
1 x [i=30, i=61]
8 x [i=31, i=59]
6 x [i=31, i=94, i=117]
2 x [i=31, i=102, i=108]
12 x [i=32, i=57]
2 x [i=32, i=58]
5 x [i=32, i=61]
1 x [i=32, i=94, i=116]
11 x [i=33, i=59]
2 x [i=33, i=97, i=110]
1 x [i=34, i=55]
7 x [i=35, i=55]
6 x [i=35, i=99, i=106]
10 x [i=36, i=54]
3 x [i=36, i=96, i=108]
2 x [i=36, i=97, i=107]
1 x [i=36, i=97, i=108]
1 x [i=36, i=99, i=105]
2 x [i=36, i=101, i=104]
3 x [i=37, i=53]
9 x [i=38, i=53]
7 x [i=39, i=52]
1 x [i=39, i=53]
2 x [i=40, i=50]
11 x [i=40, i=51]
6 x [i=41, i=97, i=102]
12 x [i=42, i=50]
1 x [i=42, i=53]
2 x [i=42, i=94, i=113]
3 x [i=42, i=97, i=102]
2 x [i=42, i=97, i=103]
2 x [i=43, i=98, i=101]
1 x [i=43, i=99, i=100]
2 x [i=44, i=48]
17 x [i=45, i=46]
2 x [i=45, i=47]
5 x [i=47, i=93, i=111]
1 x [i=47, i=94, i=109]
5 x [i=47, i=47]
9 x [i=48, i=93, i=110]
2 x [i=49, i=92, i=111]
2 x [i=49, i=93, i=109]
7 x [i=49, i=95, i=99]
2 x [i=56, i=94, i=99]
1 x [i=59, i=92, i=103]
1 x [i=61, i=91, i=97]
5 x [i=61, i=92, i=96]
2 x [i=61, i=92, i=97]
1 x [i=62, i=94, i=95]
2 x [i=63, i=90, i=104]
1 x [i=63, i=94, i=95]
1 x [i=74, i=90, i=92]
1 x [i=75, i=97]
9 x [i=78, i=79, i=95]
1 x [i=79, i=90, i=92]
